100
128
34
16
40
2
6
6
45
16
21
23
21
46
36
10
8
23
39
55
59
35
19
11
52
39
16
27
14
17
37
11
17
15
24
31
2
56
10
10
23
11
16
54
42
11
14
16
18
38
34
18
45
29
25
25
49
19
12
36
48
29
20
33
1
47
13
36
27
14
16
38
35
28
13
14
5
3
39
21
30
60
64
15
32
44
60
15
42
57
17
25
54
18
17
23
38
24
63
32
34
62